Cost: 538
0-2-62-22-42-43-1-6-0
0-45-29-20-60-69-21-48-0
0-17-32-50-55-9-12-0
0-26-58-38-65-59-53-7-0
0-34-52-27-13-54-19-35-0
0-40-3-49-56-23-63-16-0
0-67-4-0
Cost: 538
0-7-53-59-65-38-58-26-0
0-35-19-54-13-27-52-34-0
0-16-63-23-56-49-3-40-0
0-45-29-20-60-69-21-48-0
0-6-1-43-42-22-62-2-0
0-4-67-0
0-17-32-50-55-9-12-0
Cost: 538
0-67-4-0
0-35-19-54-13-27-52-34-0
0-16-63-23-56-49-3-40-0
0-26-58-38-65-59-53-7-0
0-2-62-22-42-43-1-6-0
0-48-21-69-60-20-29-45-0
0-12-9-55-50-32-17-0
Cost: 538
0-16-63-23-56-49-3-40-0
0-2-62-22-42-43-1-6-0
0-17-32-50-55-9-12-0
0-67-4-0
0-7-53-59-65-38-58-26-0
0-35-19-54-13-27-52-34-0
0-45-29-20-60-69-21-48-0
Cost: 538
0-45-29-20-60-69-21-48-0
0-16-63-23-56-49-3-40-0
0-6-1-43-42-22-62-2-0
0-12-9-55-50-32-17-0
0-67-4-0
0-35-19-54-13-27-52-34-0
0-26-58-38-65-59-53-7-0
Cost: 538
0-2-62-22-42-43-1-6-0
0-26-58-38-65-59-53-7-0
0-45-29-20-60-69-21-48-0
0-34-52-27-13-54-19-35-0
0-12-9-55-50-32-17-0
0-40-3-49-56-23-63-16-0
0-4-67-0
Cost: 538
0-4-67-0
0-12-9-55-50-32-17-0
0-45-29-20-60-69-21-48-0
0-6-1-43-42-22-62-2-0
0-7-53-59-65-38-58-26-0
0-40-3-49-56-23-63-16-0
0-35-19-54-13-27-52-34-0
Cost: 538
0-12-9-55-50-32-17-0
0-35-19-54-13-27-52-34-0
0-7-53-59-65-38-58-26-0
0-6-1-43-42-22-62-2-0
0-67-4-0
0-16-63-23-56-49-3-40-0
0-48-21-69-60-20-29-45-0
Cost: 538
0-2-62-22-42-43-1-6-0
0-16-63-23-56-49-3-40-0
0-35-19-54-13-27-52-34-0
0-67-4-0
0-48-21-69-60-20-29-45-0
0-12-9-55-50-32-17-0
0-7-53-59-65-38-58-26-0
Cost: 538
0-16-63-23-56-49-3-40-0
0-17-32-50-55-9-12-0
0-35-19-54-13-27-52-34-0
0-4-67-0
0-26-58-38-65-59-53-7-0
0-6-1-43-42-22-62-2-0
0-48-21-69-60-20-29-45-0
Cost: 538
0-16-63-23-56-49-3-40-0
0-17-32-50-55-9-12-0
0-35-19-54-13-27-52-34-0
0-4-67-0
0-26-58-38-65-59-53-7-0
0-6-1-43-42-22-62-2-0
0-48-21-69-60-20-29-45-0
Cost: 538
0-16-63-23-56-49-3-40-0
0-17-32-50-55-9-12-0
0-35-19-54-13-27-52-34-0
0-4-67-0
0-26-58-38-65-59-53-7-0
0-6-1-43-42-22-62-2-0
0-48-21-69-60-20-29-45-0
Cost: 538
0-16-63-23-56-49-3-40-0
0-17-32-50-55-9-12-0
0-35-19-54-13-27-52-34-0
0-4-67-0
0-26-58-38-65-59-53-7-0
0-6-1-43-42-22-62-2-0
0-48-21-69-60-20-29-45-0
Cost: 538
0-16-63-23-56-49-3-40-0
0-17-32-50-55-9-12-0
0-35-19-54-13-27-52-34-0
0-4-67-0
0-26-58-38-65-59-53-7-0
0-6-1-43-42-22-62-2-0
0-48-21-69-60-20-29-45-0
Cost: 538
0-16-63-23-56-49-3-40-0
0-17-32-50-55-9-12-0
0-35-19-54-13-27-52-34-0
0-4-67-0
0-26-58-38-65-59-53-7-0
0-6-1-43-42-22-62-2-0
0-48-21-69-60-20-29-45-0
Cost: 538
0-16-63-23-56-49-3-40-0
0-17-32-50-55-9-12-0
0-35-19-54-13-27-52-34-0
0-4-67-0
0-26-58-38-65-59-53-7-0
0-6-1-43-42-22-62-2-0
0-48-21-69-60-20-29-45-0
Cost: 538
0-16-63-23-56-49-3-40-0
0-17-32-50-55-9-12-0
0-35-19-54-13-27-52-34-0
0-4-67-0
0-26-58-38-65-59-53-7-0
0-6-1-43-42-22-62-2-0
0-48-21-69-60-20-29-45-0
Cost: 538
0-16-63-23-56-49-3-40-0
0-17-32-50-55-9-12-0
0-35-19-54-13-27-52-34-0
0-4-67-0
0-26-58-38-65-59-53-7-0
0-6-1-43-42-22-62-2-0
0-48-21-69-60-20-29-45-0
Cost: 538
0-16-63-23-56-49-3-40-0
0-17-32-50-55-9-12-0
0-35-19-54-13-27-52-34-0
0-4-67-0
0-26-58-38-65-59-53-7-0
0-6-1-43-42-22-62-2-0
0-48-21-69-60-20-29-45-0
Cost: 538
0-16-63-23-56-49-3-40-0
0-17-32-50-55-9-12-0
0-35-19-54-13-27-52-34-0
0-4-67-0
0-26-58-38-65-59-53-7-0
0-6-1-43-42-22-62-2-0
0-48-21-69-60-20-29-45-0
Cost: 538
0-16-63-23-56-49-3-40-0
0-17-32-50-55-9-12-0
0-35-19-54-13-27-52-34-0
0-4-67-0
0-26-58-38-65-59-53-7-0
0-6-1-43-42-22-62-2-0
0-48-21-69-60-20-29-45-0
Cost: 538
0-40-3-49-56-23-63-16-0
0-7-53-59-65-38-58-26-0
0-34-52-27-13-54-19-35-0
0-67-4-0
0-17-32-50-55-9-12-0
0-45-29-20-60-69-21-48-0
0-2-62-22-42-43-1-6-0
Cost: 538
0-16-63-23-56-49-3-40-0
0-17-32-50-55-9-12-0
0-35-19-54-13-27-52-34-0
0-4-67-0
0-26-58-38-65-59-53-7-0
0-6-1-43-42-22-62-2-0
0-48-21-69-60-20-29-45-0
Cost: 538
0-16-63-23-56-49-3-40-0
0-17-32-50-55-9-12-0
0-35-19-54-13-27-52-34-0
0-4-67-0
0-26-58-38-65-59-53-7-0
0-6-1-43-42-22-62-2-0
0-48-21-69-60-20-29-45-0
Cost: 538
0-16-63-23-56-49-3-40-0
0-17-32-50-55-9-12-0
0-35-19-54-13-27-52-34-0
0-4-67-0
0-26-58-38-65-59-53-7-0
0-6-1-43-42-22-62-2-0
0-48-21-69-60-20-29-45-0
Cost: 538
0-52-15-20-60-69-21-48-30-0
0-4-0
0-26-58-38-65-59-53-67-0
0-6-63-23-56-49-3-40-0
0-17-32-50-55-9-12-0
0-27-13-54-19-35-8-46-0
0-2-62-22-42-43-1-33-0
Cost: 539
0-40-3-49-56-23-63-6-0
0-12-9-55-50-32-17-0
0-33-1-43-42-22-62-2-0
0-4-0
0-52-15-20-60-69-21-48-30-0
0-67-53-59-66-38-58-26-0
0-46-8-35-19-54-13-27-0
Cost: 540
0-52-15-20-60-69-21-48-30-0
0-2-62-22-42-43-1-33-0
0-6-63-23-56-49-3-40-0
0-67-26-0
0-46-8-19-54-27-4-0
0-35-53-14-59-65-38-58-0
0-17-32-50-55-9-12-0
Cost: 538
0-67-4-0
0-40-3-49-56-23-63-16-0
0-12-9-55-50-32-17-0
0-26-58-38-65-59-53-7-0
0-35-19-54-13-27-52-34-0
0-6-1-43-42-22-62-2-0
0-45-29-20-60-69-21-48-0
Cost: 538
0-4-67-0
0-17-32-50-55-9-12-0
0-40-3-49-56-23-63-16-0
0-2-62-22-42-43-1-6-0
0-45-29-20-60-69-21-48-0
0-34-52-27-13-54-19-35-0
0-7-53-59-65-38-58-26-0
